StudentsNr = 10;
InstructorsNr = 95;
DaysNr = 2;
SlotsPerDay = 40;
AvailabilitySlotsLenght = 40;
RoomNr = 2;
ProgrammNr = 1;
DegreeNr = 3;
RolesNr = 2;
CoursesNr = 9;
InstructorsProgramm = [{1}, {1}, {1}, {1}, {1}, {1}, {1}, {1}, {1}, {1}, {1}, {1}, {1}, {1}, {1}, {1}, {1}, {1}, {1}, {1}, {1}, {1}, {1}, {1}, {1}, {1}, {1}, {1}, {1}, {1}, {1}, {1}, {1}, {1}, {1}, {1}, {1}, {1}, {1}, {1}, {1}, {1}, {1}, {1}, {1}, {1}, {1}, {1}, {1}, {1}, {1}, {1}, {1}, {1}, {1}, {1}, {1}, {1}, {1}, {1}, {1}, {1}, {1}, {1}, {1}, {1}, {1}, {1}, {1}, {1}, {1}, {1}, {1}, {1}, {1}, {1}, {1}, {1}, {1}, {1}, {1}, {1}, {1}, {1}, {1}, {1}, {1}, {1}, {1}, {1}, {1}, {1}, {1}, {1}, {1}];
InstructorRolesPerProgramm = [|{2, 3, 4, 5, 10, 14, 23, 26, 37, 38, 41, 44, 48, 51, 55, 65, 69, 71, 74, 75, 77, 79, 80, 83, 86, 88, 92, 94}, {7, 10, 11, 15, 17, 18, 19, 21, 23, 25, 29, 33, 35, 37, 39, 46, 47, 48, 49, 51, 61, 62, 63, 65, 66, 68, 71, 72, 75, 76, 77, 78, 85, 86, 91, 92, 95}|];
InstructorsAvailability = [|1, 0, |0, 0, |0, 1, |0, 0, |1, 1, |0, 1, |0, 0, |1, 0, |0, 1, |0, 1, |0, 0, |1, 0, |1, 1, |0, 0, |0, 1, |0, 1, |1, 1, |1, 1, |1, 0, |0, 0, |1, 1, |1, 1, |0, 0, |0, 1, |1, 0, |1, 1, |0, 1, |1, 1, |1, 1, |0, 1, |1, 0, |0, 1, |0, 0, |0, 1, |1, 1, |1, 0, |0, 1, |0, 0, |1, 1, |0, 1, |0, 1, |1, 0, |1, 0, |0, 0, |1, 1, |0, 0, |0, 0, |1, 1, |1, 1, |1, 1, |0, 0, |1, 1, |1, 1, |1, 1, |0, 0, |1, 0, |1, 1, |1, 0, |1, 1, |1, 1, |0, 1, |1, 1, |0, 1, |0, 0, |1, 1, |1, 1, |0, 0, |1, 1, |1, 1, |1, 1, |1, 1, |1, 1, |1, 0, |1, 1, |1, 0, |1, 0, |1, 1, |1, 1, |0, 0, |0, 1, |1, 0, |0, 1, |1, 1, |0, 1, |0, 0, |0, 0, |1, 1, |0, 0, |0, 0, |0, 1, |1, 1, |1, 1, |0, 1, |1, 1, |0, 1|];
StudentsProgramm = [1, 1, 1, 1, 1, 1, 1, 1, 1, 1];
StudentsDegree = [2, 1, 3, 2, 1, 3, 2, 3, 1, 3];
StudentsSupervisorId = [19, 45, 83, 20, 75, 2, 13, 65, 33, 81];
StudentsCourseIds = [{1, 2, 3, 4, 7, 8, 9}, {1, 2, 3, 4, 5, 6, 8}, {2, 3, 4, 5, 6, 7}, {1, 2, 4, 5, 7, 8, 9}, {1, 2, 4, 5, 6, 7, 8}, {1, 2, 4, 5, 6, 9}, {3, 4, 5, 6, 7, 8, 9}, {1, 2, 3, 4, 6, 8}, {1, 2, 3, 4, 5, 7, 9}, {2, 4, 6, 7, 8, 9}];
StudentsAvailability = [|1, 1, |0, 0, |0, 1, |0, 0, |1, 1, |1, 1, |0, 0, |1, 0, |1, 1, |1, 1|];
TheoryticalMinCard = [0, 0, 0, 0, 0, 0, 0, 0, 0, 0];
CoursesInstructorIds = [{1, 2, 3, 4, 5, 12, 16, 19, 20, 21, 22, 23, 27, 31, 32, 33, 35, 36, 39, 40, 41, 42, 44, 45, 47, 48, 51, 52, 56, 57, 58, 64, 66, 67, 71, 73, 75, 79, 80, 82, 85, 88, 89, 91, 93, 94}, {3, 5, 6, 8, 9, 11, 16, 17, 18, 24, 28, 29, 30, 33, 36, 37, 38, 40, 41, 43, 46, 47, 49, 53, 55, 56, 61, 65, 69, 73, 75, 77, 79, 80, 82, 83, 89, 90, 91, 92}, {3, 4, 5, 7, 8, 11, 12, 14, 15, 17, 18, 19, 21, 23, 24, 27, 28, 29, 30, 31, 32, 33, 34, 35, 36, 37, 38, 40, 41, 44, 45, 46, 47, 50, 53, 54, 55, 57, 58, 59, 60, 61, 62, 63, 67, 68, 69, 74, 75, 76, 78, 79, 81, 82, 84, 86, 87, 89, 90, 91, 92, 93, 95}, {4, 6, 7, 9, 10, 11, 12, 13, 15, 20, 22, 23, 24, 25, 26, 29, 30, 31, 32, 33, 34, 35, 36, 37, 39, 41, 43, 46, 48, 49, 50, 51, 56, 57, 61, 62, 63, 65, 67, 69, 70, 71, 72, 73, 74, 75, 76, 78, 79, 81, 84, 85, 86, 88, 90, 91, 92, 94}, {2, 3, 4, 5, 6, 7, 8, 9, 14, 16, 17, 20, 23, 27, 28, 29, 30, 32, 33, 34, 35, 38, 39, 40, 42, 43, 49, 50, 54, 58, 61, 63, 65, 67, 68, 70, 71, 72, 76, 77, 78, 79, 82, 83, 87, 90}, {6, 9, 10, 13, 14, 18, 19, 24, 28, 30, 37, 38, 40, 42, 43, 44, 49, 50, 54, 55, 58, 68, 69, 70, 71, 72, 75, 77, 83, 86, 89, 91}, {1, 2, 3, 5, 7, 10, 13, 14, 15, 16, 18, 19, 23, 24, 26, 27, 29, 30, 31, 32, 33, 34, 35, 36, 38, 39, 41, 42, 43, 44, 45, 46, 47, 48, 49, 50, 51, 56, 59, 60, 61, 62, 63, 64, 65, 67, 68, 69, 70, 73, 74, 77, 78, 80, 81, 83, 84, 85, 86, 87, 89, 92, 93, 95}, {1, 2, 3, 5, 6, 8, 12, 13, 17, 18, 21, 22, 23, 25, 26, 27, 30, 32, 33, 37, 39, 40, 41, 42, 43, 45, 46, 48, 53, 56, 58, 59, 62, 64, 65, 66, 67, 68, 71, 72, 73, 74, 75, 76, 78, 79, 80, 81, 83, 85, 86, 87, 88, 91, 92, 93}, {4, 6, 12, 17, 23, 25, 26, 28, 30, 40, 41, 42, 45, 48, 49, 50, 54, 56, 59, 60, 62, 67, 68, 69, 70, 72, 77, 78, 85}];
RolesDemands = [3, 27];
RolesContinuity = [];
ExamLen = [1, 2, 1, 1, 2, 1, 1, 1, 2, 1];
LunchTsMinLen = 1;
LunchStarts = [11..24, 58..64];
SupervisorAvailable = 0;
OptimalLunchLenght = [2, 1];
OptimalStartTs = [2, 0];
OptimalFinishTs = [1, 40];
MinimizeRooms = 500;
RolesSoftContinuity = [|1, 2|0, 0|];
SameDegreeInRoom = 0;
Mergeability = 0;
